
50
139346

3288 3288
9831 9833
9591 9593
9183 9184
7899 7900
8751 8751
3 5
6270 6270
2475 2477
7305 7305
4323 4324
5601 5601
5427 5428
5760 5762
8274 8274
9816 9816
3456 3456
8061 8062
8892 8893
3921 3921
1233 1235
4974 4974
7647 7647
5241 5242
1845 1845
7053 7055
3246 3246
8862 8863
1683 1685
5937 5939
3855 3855
9849 9850
1386 1387
8802 8802
4176 4177
3717 3719
2082 2082
4944 4946
9294 9294
9993 9994
9396 9396
6111 6113
2361 2361
5073 5073
6498 6498
2958 2960
9870 9870
846 846
2349 2349
2031 2033
